<number of tasks>
50

<cycle time>
1000

<order strength>
0.604


<task times>
1 379
2 673
3 417
4 670
5 482
6 573
7 571
8 454
9 430
10 197
11 438
12 598
13 503
14 400
15 354
16 525
17 378
18 632
19 697
20 535
21 567
22 659
23 709
24 463
25 387
26 457
27 470
28 611
29 337
30 286
31 576
32 402
33 687
34 324
35 577
36 408
37 323
38 598
39 556
40 550
41 588
42 538
43 745
44 276
45 452
46 255
47 346
48 445
49 355
50 346

<precedence relations>
1,8
2,8
3,8
4,8
5,22
6,10
6,34
6,43
7,9
7,17
7,20
8,11
8,12
8,13
8,14
9,15
9,18
11,20
11,21
12,16
12,21
13,16
13,18
13,20
14,17
14,23
15,16
15,19
15,21
16,41
17,22
18,22
19,22
20,24
20,25
20,33
21,22
21,23
22,26
22,27
22,28
22,29
22,30
22,31
22,32
22,33
23,33
23,39
24,34
24,35
25,41
25,42
26,41
28,35
29,41
31,36
31,39
32,35
33,37
35,39
35,40
37,38
37,40
38,41
39,41
40,42
40,43
41,44
41,45
41,46
41,47
41,48
43,49
46,50
49,50

<end>
